
se = 40; % nombre de sessions
gr = 20; % nombre de grups de treball
cl = 7; % nombre de slots
minPapersPerSlot = 3; % minim nombre d'articles per sessio i slot
maxSesionsPar = 14; % maxim nombre de sessions paraleles

npMax = [5, 4, 4, 4, 3, 3, 6]; % nombre maxim de papers per slot

np = [11, 3, 3, 7, 13, 10, 3, 17, 11, 3, 9, 9, 4, 3, 3, 4, 14, 20, 7, 5, 3, 3, 3, 14, 3, 13, 3, 10, 5, 3, 5, 3, 3, 12, 7, 10, 3, 3, 13, 6]; % nombre de papers acceptats a cada sessio

WG = [ {}, {}, {}, {1}, {}, {2}, {3}, {4}, {5}, {6}, {7}, {8}, {}, {}, {9,10}, {11}, {12}, {}, {}, {13}, {14,15}, {16}, {17}, {18,19,20}, {1}, {2,3,4}, {5}, {}, {6,7}, {8}, {9}, {10}, {11,12}, {13}, {14}, {15,16,17}, {18}, {19,20}, {1}, {} ]; % grups per sessio

